
Gurobi 12.0.3 (linux64) logging started Fri Mar 27 02:02:31 2026

Set parameter LogFile to value "/home/solar-wind/WT_Solar_results_bigM100000_thread4/case24_ieee_rts_theta0.12_epsilon0.08_gurobi_seed30000_num_gen38_N_WDR250_load_scaling_factor1_EIFICA_T24_num_Solar5_num_WT10.txt"
Gurobi Optimizer version 12.0.3 build v12.0.3rc0 (linux64 - "Ubuntu 22.04.5 LTS")

CPU model: Intel(R) Xeon(R) Platinum 8378A CPU @ 3.00GHz, instruction set [SSE2|AVX|AVX2|AVX512]
Thread count: 32 physical cores, 64 logical processors, using up to 4 threads

Non-default parameters:
TimeLimit  14400
MIPGap  0.001
Seed  30000
Threads  4

Academic license 2721591 - for non-commercial use only - registered to fa___@mails.neu.edu.cn
Optimize a model with 715588 rows, 2075 columns and 63102568 nonzeros
Model fingerprint: 0xc90005ae
Model has 912 quadratic objective terms
Coefficient statistics:
  Matrix range     [3e-07, 7e+01]
  Objective range  [2e+01, 6e+01]
  QObjective range [4e-03, 2e-02]
  Bounds range     [0e+00, 0e+00]
  RHS range        [5e-02, 1e+03]
Presolve removed 522589 rows and 0 columns (presolve time = 5s)...
Presolve removed 523463 rows and 0 columns
Presolve time: 6.60s
Presolved: 192125 rows, 2949 columns, 4545864 nonzeros
Presolved model has 912 quadratic objective terms
Elapsed ordering time = 6s
Elapsed ordering time = 18s
Elapsed ordering time = 20s
Ordering time: 33.21s
Elapsed ordering time = 33s
Elapsed ordering time = 35s
Elapsed ordering time = 40s
Elapsed ordering time = 44s
Elapsed ordering time = 45s
Elapsed ordering time = 50s
Elapsed ordering time = 51s
Elapsed ordering time = 55s
Elapsed ordering time = 61s
Ordering time: 66.24s

Barrier statistics:
 Dense cols : 1121
 AA' NZ     : 2.316e+08
 Factor NZ  : 1.351e+09 (roughly 10.0 GB of memory)
 Factor Ops : 2.859e+13 (roughly 160 seconds per iteration)
 Threads    : 4

                  Objective                Residual
Iter       Primal          Dual         Primal    Dual     Compl     Time
   0   5.56003057e+08 -2.95927443e+08  3.75e+04 9.94e+02  9.91e+05   177s
   1   5.20852075e+08 -2.71107684e+08  3.59e+04 9.52e+02  9.49e+05   177s
   2   5.15235803e+08 -3.27701675e+08  3.57e+04 9.45e+02  9.45e+05   178s
   3   4.70445606e+08 -3.15113427e+08  3.36e+04 8.88e+02  8.90e+05   178s
   4   4.31400055e+08 -3.95834960e+08  3.18e+04 8.37e+02  8.56e+05   179s
   5   3.70177921e+08 -4.87310994e+08  2.88e+04 7.52e+02  8.25e+05   179s
   6   3.33792710e+08 -5.13437282e+08  2.68e+04 6.99e+02  7.85e+05   179s
   7   2.85301964e+08 -5.32216970e+08  2.40e+04 6.24e+02  7.02e+05   179s
   8   2.49996618e+08 -5.46565405e+08  2.20e+04 5.66e+02  6.38e+05   179s
   9   2.21280493e+08 -5.62228828e+08  2.01e+04 5.16e+02  5.83e+05   179s
  10   1.95266848e+08 -5.78623136e+08  1.82e+04 4.69e+02  5.31e+05   180s
  11   1.73266842e+08 -5.96317758e+08  1.67e+04 4.28e+02  4.85e+05   180s
  12   1.48084796e+08 -6.16083871e+08  1.48e+04 3.77e+02  4.29e+05   180s
  13   1.32732837e+08 -6.32925331e+08  1.37e+04 3.45e+02  3.93e+05   180s
  14   1.17092920e+08 -6.53561013e+08  1.25e+04 3.11e+02  3.55e+05   180s
  15   9.57761651e+07 -6.82966982e+08  1.07e+04 2.62e+02  3.01e+05   180s
  16   8.27040073e+07 -7.02953916e+08  9.47e+03 2.31e+02  2.66e+05   181s
  17   7.25616281e+07 -7.23309122e+08  8.50e+03 2.06e+02  2.38e+05   181s
  18   6.26373805e+07 -7.43894598e+08  7.51e+03 1.81e+02  2.09e+05   181s
  19   5.42066440e+07 -7.62696838e+08  6.64e+03 1.59e+02  1.84e+05   181s
  20   4.53980819e+07 -7.83998910e+08  5.69e+03 1.35e+02  1.57e+05   181s
  21   3.74792300e+07 -8.01753012e+08  4.79e+03 1.13e+02  1.33e+05   181s
  22   3.02468947e+07 -8.15091751e+08  3.94e+03 9.23e+01  1.09e+05   181s
  23   2.15278704e+07 -8.24468579e+08  2.86e+03 6.64e+01  8.37e+04   182s
  24   1.76341777e+07 -8.20042716e+08  2.35e+03 5.46e+01  6.93e+04   182s
  25   1.18475850e+07 -7.99735486e+08  2.00e+03 3.68e+01  4.77e+04   182s
  26   9.06644614e+06 -7.67473407e+08  1.69e+03 2.80e+01  3.67e+04   182s
  27   7.38071135e+06 -7.39160796e+08  1.53e+03 2.26e+01  2.99e+04   182s
  28   5.72179918e+06 -6.95312398e+08  1.29e+03 1.73e+01  2.31e+04   182s
  29   4.66924911e+06 -6.50402981e+08  1.06e+03 1.39e+01  1.87e+04   182s
  30   3.61377891e+06 -5.89699404e+08  8.08e+02 1.04e+01  1.43e+04   182s
  31   2.90820918e+06 -5.38691299e+08  6.39e+02 8.16e+00  1.13e+04   183s
  32   2.40695165e+06 -4.87334032e+08  5.07e+02 6.49e+00  9.06e+03   183s
  33   1.89802543e+06 -4.67677203e+08  3.65e+02 4.75e+00  7.36e+03   183s
  34   1.50937567e+06 -4.27986841e+08  2.58e+02 3.38e+00  5.69e+03   183s
  35   1.10403121e+06 -3.86917795e+08  1.42e+02 1.92e+00  3.84e+03   183s
  36   9.27720585e+05 -3.25195493e+08  8.69e+01 1.19e+00  2.68e+03   184s
  37   8.15344463e+05 -2.66622173e+08  5.50e+01 7.46e-01  1.93e+03   184s
  38   7.69739530e+05 -2.27798692e+08  4.06e+01 5.52e-01  1.53e+03   184s
  39   7.39095240e+05 -1.93993283e+08  2.99e+01 4.06e-01  1.24e+03   185s
  40   7.17508766e+05 -1.59428130e+08  2.13e+01 2.88e-01  9.68e+02   185s
  41   7.03169508e+05 -1.32071692e+08  1.52e+01 2.06e-01  7.71e+02   186s
  42   6.98819366e+05 -1.19333245e+08  1.27e+01 1.72e-01  6.86e+02   186s
  43   6.96734039e+05 -1.11007703e+08  1.11e+01 1.51e-01  6.32e+02   187s
  44   6.93952518e+05 -9.81469795e+07  8.89e+00 1.21e-01  5.52e+02   188s
  45   6.93016990e+05 -8.67972051e+07  7.43e+00 1.01e-01  4.84e+02   189s
  46   6.92147482e+05 -6.94426955e+07  5.39e+00 7.29e-02  3.84e+02   190s
  47   6.91241401e+05 -6.26207142e+07  5.00e+00 5.38e-02  3.46e+02   191s
  48   6.89494991e+05 -3.90906741e+07  4.08e+00 2.37e-02  2.08e+02   192s
  49   6.86348436e+05 -1.68346085e+07  1.96e+00 6.02e-03  8.99e+01   194s
  50   6.83391748e+05 -3.73039893e+06  3.10e-01 9.68e-04  2.26e+01   200s
  51   6.68696620e+05  2.17155113e+05  2.71e-02 2.75e-03  2.31e+00   356s
  52   6.16443043e+05  4.56455249e+05  4.02e-03 4.13e-04  8.17e-01   494s
  53   6.02363498e+05  5.57537515e+05  7.66e-04 8.86e-05  2.29e-01  1339s
  54   5.97881127e+05  5.71922982e+05  1.00e-04 1.16e-05  1.32e-01  1448s
  55   5.96038751e+05  5.82285409e+05  7.35e-06 8.51e-07  7.02e-02  1565s
  56   5.94756909e+05  5.88943472e+05  2.13e-07 2.47e-08  2.97e-02  1683s
  57   5.94522892e+05  5.90120739e+05  1.43e-07 1.66e-08  2.25e-02  1794s
  58   5.93981503e+05  5.92852835e+05  2.64e-09 3.11e-10  5.76e-03  1915s
  59   5.93864795e+05  5.93420418e+05  4.98e-10 6.61e-11  2.27e-03  2035s
  60   5.93811541e+05  5.93680458e+05  1.46e-10 2.32e-12  6.69e-04  2155s
  61   5.93798224e+05  5.93745809e+05  2.41e-10 1.75e-11  2.68e-04  2269s
  62   5.93791380e+05  5.93779736e+05  2.99e-09 2.64e-12  5.94e-05  2389s
  63   5.93789964e+05  5.93786742e+05  5.15e-09 2.21e-11  1.64e-05  2504s
  64   5.93789426e+05  5.93789409e+05  5.17e-09 3.82e-12  8.49e-08  2615s
  65   5.93789423e+05  5.93789423e+05  1.73e-07 4.98e-10  1.80e-09  2993s

Barrier solved model in 65 iterations and 2992.90 seconds (2267.04 work units)
Optimal objective 5.93789423e+05

